outputs/case_24.model.txt
dispose_subsidiary_shares = False
name_use_stopped = False
notify_ministry_done = False
subsidiary_shares_held_percent = 0
subsidiary_directors_appointed_percent = 0
correction_flag = True
remove_manager_staff = False
violation_flag = True
license_revoked = False
remove_director_supervisor = False
suspend_subsidiary_business = False
company_registration_changed = False
revocation_resolution = False
dispose_deadline_days_left = 0
dispose_shares_within_deadline = False
penalty_revocation_resolution = False
penalty = False
penalty_dispose_subsidiary_shares = False
penalty_remove_director_supervisor = False
notify_economic_ministry = False
correction_ordered = True
penalty_license_revoked = False
penalty_remove_manager_staff = False
penalty_suspend_subsidiary_business = False
violation_exists = True
penalty_liquidation_ordered = False